Traveling Salesman Problem/TSP_generados/Aleatorio1621103473_15.tsp
NAME: Aleatorio1621103473_15.tsp
COMMENT: Randomly generated scenario
TYPE: TSP
DIMENSION: 15
EDGE_WEIGHT_TYPE: ATT
NODE_COORD_SECTION
1 28.94 22.88
2 29.34 34.45
3 44.89 10.72
4 34.02 36.96
5 25.67 18.13
6 38.02 32.96
7 11.01 26.0
8 34.86 29.79
9 7.91 25.6
10 29.82 33.57
11 5.35 7.15
12 19.6 13.26
13 26.01 23.64
14 48.7 38.48
15 36.2 26.16
