Traveling Salesman Problem/TSP_generados/Aleatorio1621103473_15.opt.tour
NAME: Aleatorio1621103473_15.opt.tour
COMMENT: Optimal solution for Aleatorio1621103473_15 (153.0706663169583)
TYPE: TOUR
DIMENSION: 15
TOUR_SECTION
1 3 15 8 6 14 4 10 2 7 9 11 12 5 13
-1
EOF
